\ Model ../instances/darp_bc/a2-4.txt
\ LP format - for model browsing. Use MPS format to capture full model detail.
Minimize
  5.3 x[0,1,0] + 9.04 x[0,2,0] + 6.61 x[0,3,0] + 7.46 x[0,4,0]
   + 12.44 x[0,5,0] + 8.87 x[0,6,0] + 6.96 x[0,7,0] + 6.55 x[0,8,0]
   + 5.3 x[1,0,0] + 14.02 x[1,2,0] + 7.53 x[1,3,0] + 7.39 x[1,4,0]
   + 15.71 x[1,5,0] + 7.75 x[1,6,0] + 12.24 x[1,7,0] + 5.1 x[1,8,0]
   + 9.04 x[2,0,0] + 14.02 x[2,1,0] + 14.08 x[2,3,0] + 15.34 x[2,4,0]
   + 14.87 x[2,5,0] + 13.18 x[2,6,0] + 4.72 x[2,7,0] + 12.49 x[2,8,0]
   + 6.61 x[3,0,0] + 7.53 x[3,1,0] + 14.08 x[3,2,0] + 1.4 x[3,4,0]
   + 8.66 x[3,5,0] + 14.46 x[3,6,0] + 10.13 x[3,7,0] + 11.79 x[3,8,0]
   + 7.46 x[4,0,0] + 7.39 x[4,1,0] + 15.34 x[4,2,0] + 1.4 x[4,3,0]
   + 9.61 x[4,5,0] + 14.72 x[4,6,0] + 11.49 x[4,7,0] + 12.02 x[4,8,0]
   + 12.44 x[5,0,0] + 15.71 x[5,1,0] + 14.87 x[5,2,0] + 8.66 x[5,3,0]
   + 9.61 x[5,4,0] + 21.31 x[5,6,0] + 10.21 x[5,7,0] + 18.91 x[5,8,0]
   + 8.87 x[6,0,0] + 7.75 x[6,1,0] + 13.18 x[6,2,0] + 14.46 x[6,3,0]
   + 14.72 x[6,4,0] + 21.31 x[6,5,0] + 14.11 x[6,7,0] + 2.71 x[6,8,0]
   + 6.96 x[7,0,0] + 12.24 x[7,1,0] + 4.72 x[7,2,0] + 10.13 x[7,3,0]
   + 11.49 x[7,4,0] + 10.21 x[7,5,0] + 14.11 x[7,6,0] + 12.54 x[7,8,0]
   + 6.55 x[8,0,0] + 5.1 x[8,1,0] + 12.49 x[8,2,0] + 11.79 x[8,3,0]
   + 12.02 x[8,4,0] + 18.91 x[8,5,0] + 2.71 x[8,6,0] + 12.54 x[8,7,0]
   + 5.3 x[0,1,1] + 9.04 x[0,2,1] + 6.61 x[0,3,1] + 7.46 x[0,4,1]
   + 12.44 x[0,5,1] + 8.87 x[0,6,1] + 6.96 x[0,7,1] + 6.55 x[0,8,1]
   + 5.3 x[1,0,1] + 14.02 x[1,2,1] + 7.53 x[1,3,1] + 7.39 x[1,4,1]
   + 15.71 x[1,5,1] + 7.75 x[1,6,1] + 12.24 x[1,7,1] + 5.1 x[1,8,1]
   + 9.04 x[2,0,1] + 14.02 x[2,1,1] + 14.08 x[2,3,1] + 15.34 x[2,4,1]
   + 14.87 x[2,5,1] + 13.18 x[2,6,1] + 4.72 x[2,7,1] + 12.49 x[2,8,1]
   + 6.61 x[3,0,1] + 7.53 x[3,1,1] + 14.08 x[3,2,1] + 1.4 x[3,4,1]
   + 8.66 x[3,5,1] + 14.46 x[3,6,1] + 10.13 x[3,7,1] + 11.79 x[3,8,1]
   + 7.46 x[4,0,1] + 7.39 x[4,1,1] + 15.34 x[4,2,1] + 1.4 x[4,3,1]
   + 9.61 x[4,5,1] + 14.72 x[4,6,1] + 11.49 x[4,7,1] + 12.02 x[4,8,1]
   + 12.44 x[5,0,1] + 15.71 x[5,1,1] + 14.87 x[5,2,1] + 8.66 x[5,3,1]
   + 9.61 x[5,4,1] + 21.31 x[5,6,1] + 10.21 x[5,7,1] + 18.91 x[5,8,1]
   + 8.87 x[6,0,1] + 7.75 x[6,1,1] + 13.18 x[6,2,1] + 14.46 x[6,3,1]
   + 14.72 x[6,4,1] + 21.31 x[6,5,1] + 14.11 x[6,7,1] + 2.71 x[6,8,1]
   + 6.96 x[7,0,1] + 12.24 x[7,1,1] + 4.72 x[7,2,1] + 10.13 x[7,3,1]
   + 11.49 x[7,4,1] + 10.21 x[7,5,1] + 14.11 x[7,6,1] + 12.54 x[7,8,1]
   + 6.55 x[8,0,1] + 5.1 x[8,1,1] + 12.49 x[8,2,1] + 11.79 x[8,3,1]
   + 12.02 x[8,4,1] + 18.91 x[8,5,1] + 2.71 x[8,6,1] + 12.54 x[8,7,1]
   + 0 r[0,0] + 0 r[5,0] + 0 r[6,0] + 0 r[7,0] + 0 r[8,0] + 0 r[9,0]
   + 0 r[0,1] + 0 r[5,1] + 0 r[6,1] + 0 r[7,1] + 0 r[8,1] + 0 r[9,1]
Subject To
 R0: x[1,0,0] + x[1,1,0] + x[1,2,0] + x[1,3,0] + x[1,4,0] + x[1,5,0]
   + x[1,6,0] + x[1,7,0] + x[1,8,0] + x[1,9,0] + x[1,0,1] + x[1,1,1]
   + x[1,2,1] + x[1,3,1] + x[1,4,1] + x[1,5,1] + x[1,6,1] + x[1,7,1]
   + x[1,8,1] + x[1,9,1] = 1
 R1: x[2,0,0] + x[2,1,0] + x[2,2,0] + x[2,3,0] + x[2,4,0] + x[2,5,0]
   + x[2,6,0] + x[2,7,0] + x[2,8,0] + x[2,9,0] + x[2,0,1] + x[2,1,1]
   + x[2,2,1] + x[2,3,1] + x[2,4,1] + x[2,5,1] + x[2,6,1] + x[2,7,1]
   + x[2,8,1] + x[2,9,1] = 1
 R2: x[3,0,0] + x[3,1,0] + x[3,2,0] + x[3,3,0] + x[3,4,0] + x[3,5,0]
   + x[3,6,0] + x[3,7,0] + x[3,8,0] + x[3,9,0] + x[3,0,1] + x[3,1,1]
   + x[3,2,1] + x[3,3,1] + x[3,4,1] + x[3,5,1] + x[3,6,1] + x[3,7,1]
   + x[3,8,1] + x[3,9,1] = 1
 R3: x[4,0,0] + x[4,1,0] + x[4,2,0] + x[4,3,0] + x[4,4,0] + x[4,5,0]
   + x[4,6,0] + x[4,7,0] + x[4,8,0] + x[4,9,0] + x[4,0,1] + x[4,1,1]
   + x[4,2,1] + x[4,3,1] + x[4,4,1] + x[4,5,1] + x[4,6,1] + x[4,7,1]
   + x[4,8,1] + x[4,9,1] = 1
 R4: x[0,0,0] + x[0,1,0] + x[0,2,0] + x[0,3,0] + x[0,4,0] + x[0,5,0]
   + x[0,6,0] + x[0,7,0] + x[0,8,0] + x[0,9,0] = 1
 R5: x[0,0,1] + x[0,1,1] + x[0,2,1] + x[0,3,1] + x[0,4,1] + x[0,5,1]
   + x[0,6,1] + x[0,7,1] + x[0,8,1] + x[0,9,1] = 1
 R6: x[0,9,0] + x[1,9,0] + x[2,9,0] + x[3,9,0] + x[4,9,0] + x[5,9,0]
   + x[6,9,0] + x[7,9,0] + x[8,9,0] + x[9,9,0] = 1
 R7: x[0,9,1] + x[1,9,1] + x[2,9,1] + x[3,9,1] + x[4,9,1] + x[5,9,1]
   + x[6,9,1] + x[7,9,1] + x[8,9,1] + x[9,9,1] = 1
 R8: x[1,0,0] + x[1,1,0] + x[1,2,0] + x[1,3,0] + x[1,4,0] + x[1,5,0]
   + x[1,6,0] + x[1,7,0] + x[1,8,0] + x[1,9,0] - x[5,0,0] - x[5,1,0]
   - x[5,2,0] - x[5,3,0] - x[5,4,0] - x[5,5,0] - x[5,6,0] - x[5,7,0]
   - x[5,8,0] - x[5,9,0] = 0
 R9: x[1,0,1] + x[1,1,1] + x[1,2,1] + x[1,3,1] + x[1,4,1] + x[1,5,1]
   + x[1,6,1] + x[1,7,1] + x[1,8,1] + x[1,9,1] - x[5,0,1] - x[5,1,1]
   - x[5,2,1] - x[5,3,1] - x[5,4,1] - x[5,5,1] - x[5,6,1] - x[5,7,1]
   - x[5,8,1] - x[5,9,1] = 0
 R10: x[2,0,0] + x[2,1,0] + x[2,2,0] + x[2,3,0] + x[2,4,0] + x[2,5,0]
   + x[2,6,0] + x[2,7,0] + x[2,8,0] + x[2,9,0] - x[6,0,0] - x[6,1,0]
   - x[6,2,0] - x[6,3,0] - x[6,4,0] - x[6,5,0] - x[6,6,0] - x[6,7,0]
   - x[6,8,0] - x[6,9,0] = 0
 R11: x[2,0,1] + x[2,1,1] + x[2,2,1] + x[2,3,1] + x[2,4,1] + x[2,5,1]
   + x[2,6,1] + x[2,7,1] + x[2,8,1] + x[2,9,1] - x[6,0,1] - x[6,1,1]
   - x[6,2,1] - x[6,3,1] - x[6,4,1] - x[6,5,1] - x[6,6,1] - x[6,7,1]
   - x[6,8,1] - x[6,9,1] = 0
 R12: x[3,0,0] + x[3,1,0] + x[3,2,0] + x[3,3,0] + x[3,4,0] + x[3,5,0]
   + x[3,6,0] + x[3,7,0] + x[3,8,0] + x[3,9,0] - x[7,0,0] - x[7,1,0]
   - x[7,2,0] - x[7,3,0] - x[7,4,0] - x[7,5,0] - x[7,6,0] - x[7,7,0]
   - x[7,8,0] - x[7,9,0] = 0
 R13: x[3,0,1] + x[3,1,1] + x[3,2,1] + x[3,3,1] + x[3,4,1] + x[3,5,1]
   + x[3,6,1] + x[3,7,1] + x[3,8,1] + x[3,9,1] - x[7,0,1] - x[7,1,1]
   - x[7,2,1] - x[7,3,1] - x[7,4,1] - x[7,5,1] - x[7,6,1] - x[7,7,1]
   - x[7,8,1] - x[7,9,1] = 0
 R14: x[4,0,0] + x[4,1,0] + x[4,2,0] + x[4,3,0] + x[4,4,0] + x[4,5,0]
   + x[4,6,0] + x[4,7,0] + x[4,8,0] + x[4,9,0] - x[8,0,0] - x[8,1,0]
   - x[8,2,0] - x[8,3,0] - x[8,4,0] - x[8,5,0] - x[8,6,0] - x[8,7,0]
   - x[8,8,0] - x[8,9,0] = 0
 R15: x[4,0,1] + x[4,1,1] + x[4,2,1] + x[4,3,1] + x[4,4,1] + x[4,5,1]
   + x[4,6,1] + x[4,7,1] + x[4,8,1] + x[4,9,1] - x[8,0,1] - x[8,1,1]
   - x[8,2,1] - x[8,3,1] - x[8,4,1] - x[8,5,1] - x[8,6,1] - x[8,7,1]
   - x[8,8,1] - x[8,9,1] = 0
 R16: x[0,1,0] - x[1,0,0] - x[1,2,0] - x[1,3,0] - x[1,4,0] - x[1,5,0]
   - x[1,6,0] - x[1,7,0] - x[1,8,0] - x[1,9,0] + x[2,1,0] + x[3,1,0]
   + x[4,1,0] + x[5,1,0] + x[6,1,0] + x[7,1,0] + x[8,1,0] + x[9,1,0] = 0
 R17: x[0,1,1] - x[1,0,1] - x[1,2,1] - x[1,3,1] - x[1,4,1] - x[1,5,1]
   - x[1,6,1] - x[1,7,1] - x[1,8,1] - x[1,9,1] + x[2,1,1] + x[3,1,1]
   + x[4,1,1] + x[5,1,1] + x[6,1,1] + x[7,1,1] + x[8,1,1] + x[9,1,1] = 0
 R18: x[0,2,0] + x[1,2,0] - x[2,0,0] - x[2,1,0] - x[2,3,0] - x[2,4,0]
   - x[2,5,0] - x[2,6,0] - x[2,7,0] - x[2,8,0] - x[2,9,0] + x[3,2,0]
   + x[4,2,0] + x[5,2,0] + x[6,2,0] + x[7,2,0] + x[8,2,0] + x[9,2,0] = 0
 R19: x[0,2,1] + x[1,2,1] - x[2,0,1] - x[2,1,1] - x[2,3,1] - x[2,4,1]
   - x[2,5,1] - x[2,6,1] - x[2,7,1] - x[2,8,1] - x[2,9,1] + x[3,2,1]
   + x[4,2,1] + x[5,2,1] + x[6,2,1] + x[7,2,1] + x[8,2,1] + x[9,2,1] = 0
 R20: x[0,3,0] + x[1,3,0] + x[2,3,0] - x[3,0,0] - x[3,1,0] - x[3,2,0]
   - x[3,4,0] - x[3,5,0] - x[3,6,0] - x[3,7,0] - x[3,8,0] - x[3,9,0]
   + x[4,3,0] + x[5,3,0] + x[6,3,0] + x[7,3,0] + x[8,3,0] + x[9,3,0] = 0
 R21: x[0,3,1] + x[1,3,1] + x[2,3,1] - x[3,0,1] - x[3,1,1] - x[3,2,1]
   - x[3,4,1] - x[3,5,1] - x[3,6,1] - x[3,7,1] - x[3,8,1] - x[3,9,1]
   + x[4,3,1] + x[5,3,1] + x[6,3,1] + x[7,3,1] + x[8,3,1] + x[9,3,1] = 0
 R22: x[0,4,0] + x[1,4,0] + x[2,4,0] + x[3,4,0] - x[4,0,0] - x[4,1,0]
   - x[4,2,0] - x[4,3,0] - x[4,5,0] - x[4,6,0] - x[4,7,0] - x[4,8,0]
   - x[4,9,0] + x[5,4,0] + x[6,4,0] + x[7,4,0] + x[8,4,0] + x[9,4,0] = 0
 R23: x[0,4,1] + x[1,4,1] + x[2,4,1] + x[3,4,1] - x[4,0,1] - x[4,1,1]
   - x[4,2,1] - x[4,3,1] - x[4,5,1] - x[4,6,1] - x[4,7,1] - x[4,8,1]
   - x[4,9,1] + x[5,4,1] + x[6,4,1] + x[7,4,1] + x[8,4,1] + x[9,4,1] = 0
 R24: x[0,5,0] + x[1,5,0] + x[2,5,0] + x[3,5,0] + x[4,5,0] - x[5,0,0]
   - x[5,1,0] - x[5,2,0] - x[5,3,0] - x[5,4,0] - x[5,6,0] - x[5,7,0]
   - x[5,8,0] - x[5,9,0] + x[6,5,0] + x[7,5,0] + x[8,5,0] + x[9,5,0] = 0
 R25: x[0,5,1] + x[1,5,1] + x[2,5,1] + x[3,5,1] + x[4,5,1] - x[5,0,1]
   - x[5,1,1] - x[5,2,1] - x[5,3,1] - x[5,4,1] - x[5,6,1] - x[5,7,1]
   - x[5,8,1] - x[5,9,1] + x[6,5,1] + x[7,5,1] + x[8,5,1] + x[9,5,1] = 0
 R26: x[0,6,0] + x[1,6,0] + x[2,6,0] + x[3,6,0] + x[4,6,0] + x[5,6,0]
   - x[6,0,0] - x[6,1,0] - x[6,2,0] - x[6,3,0] - x[6,4,0] - x[6,5,0]
   - x[6,7,0] - x[6,8,0] - x[6,9,0] + x[7,6,0] + x[8,6,0] + x[9,6,0] = 0
 R27: x[0,6,1] + x[1,6,1] + x[2,6,1] + x[3,6,1] + x[4,6,1] + x[5,6,1]
   - x[6,0,1] - x[6,1,1] - x[6,2,1] - x[6,3,1] - x[6,4,1] - x[6,5,1]
   - x[6,7,1] - x[6,8,1] - x[6,9,1] + x[7,6,1] + x[8,6,1] + x[9,6,1] = 0
 R28: x[0,7,0] + x[1,7,0] + x[2,7,0] + x[3,7,0] + x[4,7,0] + x[5,7,0]
   + x[6,7,0] - x[7,0,0] - x[7,1,0] - x[7,2,0] - x[7,3,0] - x[7,4,0]
   - x[7,5,0] - x[7,6,0] - x[7,8,0] - x[7,9,0] + x[8,7,0] + x[9,7,0] = 0
 R29: x[0,7,1] + x[1,7,1] + x[2,7,1] + x[3,7,1] + x[4,7,1] + x[5,7,1]
   + x[6,7,1] - x[7,0,1] - x[7,1,1] - x[7,2,1] - x[7,3,1] - x[7,4,1]
   - x[7,5,1] - x[7,6,1] - x[7,8,1] - x[7,9,1] + x[8,7,1] + x[9,7,1] = 0
 R30: x[0,8,0] + x[1,8,0] + x[2,8,0] + x[3,8,0] + x[4,8,0] + x[5,8,0]
   + x[6,8,0] + x[7,8,0] - x[8,0,0] - x[8,1,0] - x[8,2,0] - x[8,3,0]
   - x[8,4,0] - x[8,5,0] - x[8,6,0] - x[8,7,0] - x[8,9,0] + x[9,8,0] = 0
 R31: x[0,8,1] + x[1,8,1] + x[2,8,1] + x[3,8,1] + x[4,8,1] + x[5,8,1]
   + x[6,8,1] + x[7,8,1] - x[8,0,1] - x[8,1,1] - x[8,2,1] - x[8,3,1]
   - x[8,4,1] - x[8,5,1] - x[8,6,1] - x[8,7,1] - x[8,9,1] + x[9,8,1] = 0
 R32: u[1,0] - u[5,0] + r[1,0] = -3
 R33: u[1,1] - u[5,1] + r[1,1] = -3
 R34: u[2,0] - u[6,0] + r[2,0] = -3
 R35: u[2,1] - u[6,1] + r[2,1] = -3
 R36: u[3,0] - u[7,0] + r[3,0] = -3
 R37: u[3,1] - u[7,1] + r[3,1] = -3
 R38: u[4,0] - u[8,0] + r[4,0] = -3
 R39: u[4,1] - u[8,1] + r[4,1] = -3
 R40: - u[0,0] + u[9,0] <= 480
 R41: - u[0,1] + u[9,1] <= 480
 R42: u[0,0] >= 0
 R43: u[0,1] >= 0
 R44: u[1,0] >= 0
 R45: u[1,1] >= 0
 R46: u[2,0] >= 0
 R47: u[2,1] >= 0
 R48: u[3,0] >= 0
 R49: u[3,1] >= 0
 R50: u[4,0] >= 0
 R51: u[4,1] >= 0
 R52: u[5,0] >= 0
 R53: u[5,1] >= 0
 R54: u[6,0] >= 0
 R55: u[6,1] >= 0
 R56: u[7,0] >= 0
 R57: u[7,1] >= 0
 R58: u[8,0] >= 0
 R59: u[8,1] >= 0
 R60: u[9,0] >= 0
 R61: u[9,1] >= 0
 R62: u[0,0] <= 480
 R63: u[0,1] <= 480
 R64: u[1,0] <= 1440
 R65: u[1,1] <= 1440
 R66: u[2,0] <= 1440
 R67: u[2,1] <= 1440
 R68: u[3,0] <= 1440
 R69: u[3,1] <= 1440
 R70: u[4,0] <= 1440
 R71: u[4,1] <= 1440
 R72: u[5,0] <= 1440
 R73: u[5,1] <= 1440
 R74: u[6,0] <= 1440
 R75: u[6,1] <= 1440
 R76: u[7,0] <= 1440
 R77: u[7,1] <= 1440
 R78: u[8,0] <= 1440
 R79: u[8,1] <= 1440
 R80: u[9,0] <= 480
 R81: u[9,1] <= 480
 R82: r[1,0] >= 15.71
 R83: r[1,1] >= 15.71
 R84: r[2,0] >= 13.18
 R85: r[2,1] >= 13.18
 R86: r[3,0] >= 10.13
 R87: r[3,1] >= 10.13
 R88: r[4,0] >= 12.02
 R89: r[4,1] >= 12.02
 R90: r[1,0] <= 30
 R91: r[1,1] <= 30
 R92: r[2,0] <= 30
 R93: r[2,1] <= 30
 R94: r[3,0] <= 30
 R95: r[3,1] <= 30
 R96: r[4,0] <= 30
 R97: r[4,1] <= 30
 R98: w[0,0] >= 0
 R99: w[0,1] >= 0
 R100: w[1,0] >= 1
 R101: w[1,1] >= 1
 R102: w[2,0] >= 1
 R103: w[2,1] >= 1
 R104: w[3,0] >= 1
 R105: w[3,1] >= 1
 R106: w[4,0] >= 1
 R107: w[4,1] >= 1
 R108: w[5,0] >= 0
 R109: w[5,1] >= 0
 R110: w[6,0] >= 0
 R111: w[6,1] >= 0
 R112: w[7,0] >= 0
 R113: w[7,1] >= 0
 R114: w[8,0] >= 0
 R115: w[8,1] >= 0
 R116: w[9,0] >= 0
 R117: w[9,1] >= 0
 R118: w[0,0] <= 3
 R119: w[0,1] <= 3
 R120: w[1,0] <= 3
 R121: w[1,1] <= 3
 R122: w[2,0] <= 3
 R123: w[2,1] <= 3
 R124: w[3,0] <= 3
 R125: w[3,1] <= 3
 R126: w[4,0] <= 3
 R127: w[4,1] <= 3
 R128: w[5,0] <= 2
 R129: w[5,1] <= 2
 R130: w[6,0] <= 2
 R131: w[6,1] <= 2
 R132: w[7,0] <= 2
 R133: w[7,1] <= 2
 R134: w[8,0] <= 2
 R135: w[8,1] <= 2
 R136: w[9,0] <= 3
 R137: w[9,1] <= 3
 qc0: u[0,0] + [ - x[0,0,0] * u[0,0] ] >= 0
 qc1: u[0,1] + [ - x[0,0,1] * u[0,1] ] >= 0
 qc2: - 5.3 x[0,1,0] + u[1,0] + [ - x[0,1,0] * u[0,0] ] >= 0
 qc3: - 5.3 x[0,1,1] + u[1,1] + [ - x[0,1,1] * u[0,1] ] >= 0
 qc4: - 9.04 x[0,2,0] + u[2,0] + [ - x[0,2,0] * u[0,0] ] >= 0
 qc5: - 9.04 x[0,2,1] + u[2,1] + [ - x[0,2,1] * u[0,1] ] >= 0
 qc6: - 6.61 x[0,3,0] + u[3,0] + [ - x[0,3,0] * u[0,0] ] >= 0
 qc7: - 6.61 x[0,3,1] + u[3,1] + [ - x[0,3,1] * u[0,1] ] >= 0
 qc8: - 7.46 x[0,4,0] + u[4,0] + [ - x[0,4,0] * u[0,0] ] >= 0
 qc9: - 7.46 x[0,4,1] + u[4,1] + [ - x[0,4,1] * u[0,1] ] >= 0
 qc10: - 12.44 x[0,5,0] + u[5,0] + [ - x[0,5,0] * u[0,0] ] >= 0
 qc11: - 12.44 x[0,5,1] + u[5,1] + [ - x[0,5,1] * u[0,1] ] >= 0
 qc12: - 8.87 x[0,6,0] + u[6,0] + [ - x[0,6,0] * u[0,0] ] >= 0
 qc13: - 8.87 x[0,6,1] + u[6,1] + [ - x[0,6,1] * u[0,1] ] >= 0
 qc14: - 6.96 x[0,7,0] + u[7,0] + [ - x[0,7,0] * u[0,0] ] >= 0
 qc15: - 6.96 x[0,7,1] + u[7,1] + [ - x[0,7,1] * u[0,1] ] >= 0
 qc16: - 6.55 x[0,8,0] + u[8,0] + [ - x[0,8,0] * u[0,0] ] >= 0
 qc17: - 6.55 x[0,8,1] + u[8,1] + [ - x[0,8,1] * u[0,1] ] >= 0
 qc18: u[9,0] + [ - x[0,9,0] * u[0,0] ] >= 0
 qc19: u[9,1] + [ - x[0,9,1] * u[0,1] ] >= 0
 qc20: - 8.3 x[1,0,0] + u[0,0] + [ - x[1,0,0] * u[1,0] ] >= 0
 qc21: - 8.3 x[1,0,1] + u[0,1] + [ - x[1,0,1] * u[1,1] ] >= 0
 qc22: - 3 x[1,1,0] + u[1,0] + [ - x[1,1,0] * u[1,0] ] >= 0
 qc23: - 3 x[1,1,1] + u[1,1] + [ - x[1,1,1] * u[1,1] ] >= 0
 qc24: - 17.02 x[1,2,0] + u[2,0] + [ - x[1,2,0] * u[1,0] ] >= 0
 qc25: - 17.02 x[1,2,1] + u[2,1] + [ - x[1,2,1] * u[1,1] ] >= 0
 qc26: - 10.53 x[1,3,0] + u[3,0] + [ - x[1,3,0] * u[1,0] ] >= 0
 qc27: - 10.53 x[1,3,1] + u[3,1] + [ - x[1,3,1] * u[1,1] ] >= 0
 qc28: - 10.39 x[1,4,0] + u[4,0] + [ - x[1,4,0] * u[1,0] ] >= 0
 qc29: - 10.39 x[1,4,1] + u[4,1] + [ - x[1,4,1] * u[1,1] ] >= 0
 qc30: - 18.71 x[1,5,0] + u[5,0] + [ - x[1,5,0] * u[1,0] ] >= 0
 qc31: - 18.71 x[1,5,1] + u[5,1] + [ - x[1,5,1] * u[1,1] ] >= 0
 qc32: - 10.75 x[1,6,0] + u[6,0] + [ - x[1,6,0] * u[1,0] ] >= 0
 qc33: - 10.75 x[1,6,1] + u[6,1] + [ - x[1,6,1] * u[1,1] ] >= 0
 qc34: - 15.24 x[1,7,0] + u[7,0] + [ - x[1,7,0] * u[1,0] ] >= 0
 qc35: - 15.24 x[1,7,1] + u[7,1] + [ - x[1,7,1] * u[1,1] ] >= 0
 qc36: - 8.1 x[1,8,0] + u[8,0] + [ - x[1,8,0] * u[1,0] ] >= 0
 qc37: - 8.1 x[1,8,1] + u[8,1] + [ - x[1,8,1] * u[1,1] ] >= 0
 qc38: - 3 x[1,9,0] + u[9,0] + [ - x[1,9,0] * u[1,0] ] >= 0
 qc39: - 3 x[1,9,1] + u[9,1] + [ - x[1,9,1] * u[1,1] ] >= 0
 qc40: - 12.04 x[2,0,0] + u[0,0] + [ - x[2,0,0] * u[2,0] ] >= 0
 qc41: - 12.04 x[2,0,1] + u[0,1] + [ - x[2,0,1] * u[2,1] ] >= 0
 qc42: - 17.02 x[2,1,0] + u[1,0] + [ - x[2,1,0] * u[2,0] ] >= 0
 qc43: - 17.02 x[2,1,1] + u[1,1] + [ - x[2,1,1] * u[2,1] ] >= 0
 qc44: - 3 x[2,2,0] + u[2,0] + [ - x[2,2,0] * u[2,0] ] >= 0
 qc45: - 3 x[2,2,1] + u[2,1] + [ - x[2,2,1] * u[2,1] ] >= 0
 qc46: - 17.08 x[2,3,0] + u[3,0] + [ - x[2,3,0] * u[2,0] ] >= 0
 qc47: - 17.08 x[2,3,1] + u[3,1] + [ - x[2,3,1] * u[2,1] ] >= 0
 qc48: - 18.34 x[2,4,0] + u[4,0] + [ - x[2,4,0] * u[2,0] ] >= 0
 qc49: - 18.34 x[2,4,1] + u[4,1] + [ - x[2,4,1] * u[2,1] ] >= 0
 qc50: - 17.87 x[2,5,0] + u[5,0] + [ - x[2,5,0] * u[2,0] ] >= 0
 qc51: - 17.87 x[2,5,1] + u[5,1] + [ - x[2,5,1] * u[2,1] ] >= 0
 qc52: - 16.18 x[2,6,0] + u[6,0] + [ - x[2,6,0] * u[2,0] ] >= 0
 qc53: - 16.18 x[2,6,1] + u[6,1] + [ - x[2,6,1] * u[2,1] ] >= 0
 qc54: - 7.72 x[2,7,0] + u[7,0] + [ - x[2,7,0] * u[2,0] ] >= 0
 qc55: - 7.72 x[2,7,1] + u[7,1] + [ - x[2,7,1] * u[2,1] ] >= 0
 qc56: - 15.49 x[2,8,0] + u[8,0] + [ - x[2,8,0] * u[2,0] ] >= 0
 qc57: - 15.49 x[2,8,1] + u[8,1] + [ - x[2,8,1] * u[2,1] ] >= 0
 qc58: - 3 x[2,9,0] + u[9,0] + [ - x[2,9,0] * u[2,0] ] >= 0
 qc59: - 3 x[2,9,1] + u[9,1] + [ - x[2,9,1] * u[2,1] ] >= 0
 qc60: - 9.61 x[3,0,0] + u[0,0] + [ - x[3,0,0] * u[3,0] ] >= 0
 qc61: - 9.61 x[3,0,1] + u[0,1] + [ - x[3,0,1] * u[3,1] ] >= 0
 qc62: - 10.53 x[3,1,0] + u[1,0] + [ - x[3,1,0] * u[3,0] ] >= 0
 qc63: - 10.53 x[3,1,1] + u[1,1] + [ - x[3,1,1] * u[3,1] ] >= 0
 qc64: - 17.08 x[3,2,0] + u[2,0] + [ - x[3,2,0] * u[3,0] ] >= 0
 qc65: - 17.08 x[3,2,1] + u[2,1] + [ - x[3,2,1] * u[3,1] ] >= 0
 qc66: - 3 x[3,3,0] + u[3,0] + [ - x[3,3,0] * u[3,0] ] >= 0
 qc67: - 3 x[3,3,1] + u[3,1] + [ - x[3,3,1] * u[3,1] ] >= 0
 qc68: - 4.4 x[3,4,0] + u[4,0] + [ - x[3,4,0] * u[3,0] ] >= 0
 qc69: - 4.4 x[3,4,1] + u[4,1] + [ - x[3,4,1] * u[3,1] ] >= 0
 qc70: - 11.66 x[3,5,0] + u[5,0] + [ - x[3,5,0] * u[3,0] ] >= 0
 qc71: - 11.66 x[3,5,1] + u[5,1] + [ - x[3,5,1] * u[3,1] ] >= 0
 qc72: - 17.46 x[3,6,0] + u[6,0] + [ - x[3,6,0] * u[3,0] ] >= 0
 qc73: - 17.46 x[3,6,1] + u[6,1] + [ - x[3,6,1] * u[3,1] ] >= 0
 qc74: - 13.13 x[3,7,0] + u[7,0] + [ - x[3,7,0] * u[3,0] ] >= 0
 qc75: - 13.13 x[3,7,1] + u[7,1] + [ - x[3,7,1] * u[3,1] ] >= 0
 qc76: - 14.79 x[3,8,0] + u[8,0] + [ - x[3,8,0] * u[3,0] ] >= 0
 qc77: - 14.79 x[3,8,1] + u[8,1] + [ - x[3,8,1] * u[3,1] ] >= 0
 qc78: - 3 x[3,9,0] + u[9,0] + [ - x[3,9,0] * u[3,0] ] >= 0
 qc79: - 3 x[3,9,1] + u[9,1] + [ - x[3,9,1] * u[3,1] ] >= 0
 qc80: - 10.46 x[4,0,0] + u[0,0] + [ - x[4,0,0] * u[4,0] ] >= 0
 qc81: - 10.46 x[4,0,1] + u[0,1] + [ - x[4,0,1] * u[4,1] ] >= 0
 qc82: - 10.39 x[4,1,0] + u[1,0] + [ - x[4,1,0] * u[4,0] ] >= 0
 qc83: - 10.39 x[4,1,1] + u[1,1] + [ - x[4,1,1] * u[4,1] ] >= 0
 qc84: - 18.34 x[4,2,0] + u[2,0] + [ - x[4,2,0] * u[4,0] ] >= 0
 qc85: - 18.34 x[4,2,1] + u[2,1] + [ - x[4,2,1] * u[4,1] ] >= 0
 qc86: - 4.4 x[4,3,0] + u[3,0] + [ - x[4,3,0] * u[4,0] ] >= 0
 qc87: - 4.4 x[4,3,1] + u[3,1] + [ - x[4,3,1] * u[4,1] ] >= 0
 qc88: - 3 x[4,4,0] + u[4,0] + [ - x[4,4,0] * u[4,0] ] >= 0
 qc89: - 3 x[4,4,1] + u[4,1] + [ - x[4,4,1] * u[4,1] ] >= 0
 qc90: - 12.61 x[4,5,0] + u[5,0] + [ - x[4,5,0] * u[4,0] ] >= 0
 qc91: - 12.61 x[4,5,1] + u[5,1] + [ - x[4,5,1] * u[4,1] ] >= 0
 qc92: - 17.72 x[4,6,0] + u[6,0] + [ - x[4,6,0] * u[4,0] ] >= 0
 qc93: - 17.72 x[4,6,1] + u[6,1] + [ - x[4,6,1] * u[4,1] ] >= 0
 qc94: - 14.49 x[4,7,0] + u[7,0] + [ - x[4,7,0] * u[4,0] ] >= 0
 qc95: - 14.49 x[4,7,1] + u[7,1] + [ - x[4,7,1] * u[4,1] ] >= 0
 qc96: - 15.02 x[4,8,0] + u[8,0] + [ - x[4,8,0] * u[4,0] ] >= 0
 qc97: - 15.02 x[4,8,1] + u[8,1] + [ - x[4,8,1] * u[4,1] ] >= 0
 qc98: - 3 x[4,9,0] + u[9,0] + [ - x[4,9,0] * u[4,0] ] >= 0
 qc99: - 3 x[4,9,1] + u[9,1] + [ - x[4,9,1] * u[4,1] ] >= 0
 qc100: - 15.44 x[5,0,0] + u[0,0] + [ - x[5,0,0] * u[5,0] ] >= 0
 qc101: - 15.44 x[5,0,1] + u[0,1] + [ - x[5,0,1] * u[5,1] ] >= 0
 qc102: - 18.71 x[5,1,0] + u[1,0] + [ - x[5,1,0] * u[5,0] ] >= 0
 qc103: - 18.71 x[5,1,1] + u[1,1] + [ - x[5,1,1] * u[5,1] ] >= 0
 qc104: - 17.87 x[5,2,0] + u[2,0] + [ - x[5,2,0] * u[5,0] ] >= 0
 qc105: - 17.87 x[5,2,1] + u[2,1] + [ - x[5,2,1] * u[5,1] ] >= 0
 qc106: - 11.66 x[5,3,0] + u[3,0] + [ - x[5,3,0] * u[5,0] ] >= 0
 qc107: - 11.66 x[5,3,1] + u[3,1] + [ - x[5,3,1] * u[5,1] ] >= 0
 qc108: - 12.61 x[5,4,0] + u[4,0] + [ - x[5,4,0] * u[5,0] ] >= 0
 qc109: - 12.61 x[5,4,1] + u[4,1] + [ - x[5,4,1] * u[5,1] ] >= 0
 qc110: - 3 x[5,5,0] + u[5,0] + [ - x[5,5,0] * u[5,0] ] >= 0
 qc111: - 3 x[5,5,1] + u[5,1] + [ - x[5,5,1] * u[5,1] ] >= 0
 qc112: - 24.31 x[5,6,0] + u[6,0] + [ - x[5,6,0] * u[5,0] ] >= 0
 qc113: - 24.31 x[5,6,1] + u[6,1] + [ - x[5,6,1] * u[5,1] ] >= 0
 qc114: - 13.21 x[5,7,0] + u[7,0] + [ - x[5,7,0] * u[5,0] ] >= 0
 qc115: - 13.21 x[5,7,1] + u[7,1] + [ - x[5,7,1] * u[5,1] ] >= 0
 qc116: - 21.91 x[5,8,0] + u[8,0] + [ - x[5,8,0] * u[5,0] ] >= 0
 qc117: - 21.91 x[5,8,1] + u[8,1] + [ - x[5,8,1] * u[5,1] ] >= 0
 qc118: - 3 x[5,9,0] + u[9,0] + [ - x[5,9,0] * u[5,0] ] >= 0
 qc119: - 3 x[5,9,1] + u[9,1] + [ - x[5,9,1] * u[5,1] ] >= 0
 qc120: - 11.87 x[6,0,0] + u[0,0] + [ - x[6,0,0] * u[6,0] ] >= 0
 qc121: - 11.87 x[6,0,1] + u[0,1] + [ - x[6,0,1] * u[6,1] ] >= 0
 qc122: - 10.75 x[6,1,0] + u[1,0] + [ - x[6,1,0] * u[6,0] ] >= 0
 qc123: - 10.75 x[6,1,1] + u[1,1] + [ - x[6,1,1] * u[6,1] ] >= 0
 qc124: - 16.18 x[6,2,0] + u[2,0] + [ - x[6,2,0] * u[6,0] ] >= 0
 qc125: - 16.18 x[6,2,1] + u[2,1] + [ - x[6,2,1] * u[6,1] ] >= 0
 qc126: - 17.46 x[6,3,0] + u[3,0] + [ - x[6,3,0] * u[6,0] ] >= 0
 qc127: - 17.46 x[6,3,1] + u[3,1] + [ - x[6,3,1] * u[6,1] ] >= 0
 qc128: - 17.72 x[6,4,0] + u[4,0] + [ - x[6,4,0] * u[6,0] ] >= 0
 qc129: - 17.72 x[6,4,1] + u[4,1] + [ - x[6,4,1] * u[6,1] ] >= 0
 qc130: - 24.31 x[6,5,0] + u[5,0] + [ - x[6,5,0] * u[6,0] ] >= 0
 qc131: - 24.31 x[6,5,1] + u[5,1] + [ - x[6,5,1] * u[6,1] ] >= 0
 qc132: - 3 x[6,6,0] + u[6,0] + [ - x[6,6,0] * u[6,0] ] >= 0
 qc133: - 3 x[6,6,1] + u[6,1] + [ - x[6,6,1] * u[6,1] ] >= 0
 qc134: - 17.11 x[6,7,0] + u[7,0] + [ - x[6,7,0] * u[6,0] ] >= 0
 qc135: - 17.11 x[6,7,1] + u[7,1] + [ - x[6,7,1] * u[6,1] ] >= 0
 qc136: - 5.71 x[6,8,0] + u[8,0] + [ - x[6,8,0] * u[6,0] ] >= 0
 qc137: - 5.71 x[6,8,1] + u[8,1] + [ - x[6,8,1] * u[6,1] ] >= 0
 qc138: - 3 x[6,9,0] + u[9,0] + [ - x[6,9,0] * u[6,0] ] >= 0
 qc139: - 3 x[6,9,1] + u[9,1] + [ - x[6,9,1] * u[6,1] ] >= 0
 qc140: - 9.96 x[7,0,0] + u[0,0] + [ - x[7,0,0] * u[7,0] ] >= 0
 qc141: - 9.96 x[7,0,1] + u[0,1] + [ - x[7,0,1] * u[7,1] ] >= 0
 qc142: - 15.24 x[7,1,0] + u[1,0] + [ - x[7,1,0] * u[7,0] ] >= 0
 qc143: - 15.24 x[7,1,1] + u[1,1] + [ - x[7,1,1] * u[7,1] ] >= 0
 qc144: - 7.72 x[7,2,0] + u[2,0] + [ - x[7,2,0] * u[7,0] ] >= 0
 qc145: - 7.72 x[7,2,1] + u[2,1] + [ - x[7,2,1] * u[7,1] ] >= 0
 qc146: - 13.13 x[7,3,0] + u[3,0] + [ - x[7,3,0] * u[7,0] ] >= 0
 qc147: - 13.13 x[7,3,1] + u[3,1] + [ - x[7,3,1] * u[7,1] ] >= 0
 qc148: - 14.49 x[7,4,0] + u[4,0] + [ - x[7,4,0] * u[7,0] ] >= 0
 qc149: - 14.49 x[7,4,1] + u[4,1] + [ - x[7,4,1] * u[7,1] ] >= 0
 qc150: - 13.21 x[7,5,0] + u[5,0] + [ - x[7,5,0] * u[7,0] ] >= 0
 qc151: - 13.21 x[7,5,1] + u[5,1] + [ - x[7,5,1] * u[7,1] ] >= 0
 qc152: - 17.11 x[7,6,0] + u[6,0] + [ - x[7,6,0] * u[7,0] ] >= 0
 qc153: - 17.11 x[7,6,1] + u[6,1] + [ - x[7,6,1] * u[7,1] ] >= 0
 qc154: - 3 x[7,7,0] + u[7,0] + [ - x[7,7,0] * u[7,0] ] >= 0
 qc155: - 3 x[7,7,1] + u[7,1] + [ - x[7,7,1] * u[7,1] ] >= 0
 qc156: - 15.54 x[7,8,0] + u[8,0] + [ - x[7,8,0] * u[7,0] ] >= 0
 qc157: - 15.54 x[7,8,1] + u[8,1] + [ - x[7,8,1] * u[7,1] ] >= 0
 qc158: - 3 x[7,9,0] + u[9,0] + [ - x[7,9,0] * u[7,0] ] >= 0
 qc159: - 3 x[7,9,1] + u[9,1] + [ - x[7,9,1] * u[7,1] ] >= 0
 qc160: - 9.55 x[8,0,0] + u[0,0] + [ - x[8,0,0] * u[8,0] ] >= 0
 qc161: - 9.55 x[8,0,1] + u[0,1] + [ - x[8,0,1] * u[8,1] ] >= 0
 qc162: - 8.1 x[8,1,0] + u[1,0] + [ - x[8,1,0] * u[8,0] ] >= 0
 qc163: - 8.1 x[8,1,1] + u[1,1] + [ - x[8,1,1] * u[8,1] ] >= 0
 qc164: - 15.49 x[8,2,0] + u[2,0] + [ - x[8,2,0] * u[8,0] ] >= 0
 qc165: - 15.49 x[8,2,1] + u[2,1] + [ - x[8,2,1] * u[8,1] ] >= 0
 qc166: - 14.79 x[8,3,0] + u[3,0] + [ - x[8,3,0] * u[8,0] ] >= 0
 qc167: - 14.79 x[8,3,1] + u[3,1] + [ - x[8,3,1] * u[8,1] ] >= 0
 qc168: - 15.02 x[8,4,0] + u[4,0] + [ - x[8,4,0] * u[8,0] ] >= 0
 qc169: - 15.02 x[8,4,1] + u[4,1] + [ - x[8,4,1] * u[8,1] ] >= 0
 qc170: - 21.91 x[8,5,0] + u[5,0] + [ - x[8,5,0] * u[8,0] ] >= 0
 qc171: - 21.91 x[8,5,1] + u[5,1] + [ - x[8,5,1] * u[8,1] ] >= 0
 qc172: - 5.71 x[8,6,0] + u[6,0] + [ - x[8,6,0] * u[8,0] ] >= 0
 qc173: - 5.71 x[8,6,1] + u[6,1] + [ - x[8,6,1] * u[8,1] ] >= 0
 qc174: - 15.54 x[8,7,0] + u[7,0] + [ - x[8,7,0] * u[8,0] ] >= 0
 qc175: - 15.54 x[8,7,1] + u[7,1] + [ - x[8,7,1] * u[8,1] ] >= 0
 qc176: - 3 x[8,8,0] + u[8,0] + [ - x[8,8,0] * u[8,0] ] >= 0
 qc177: - 3 x[8,8,1] + u[8,1] + [ - x[8,8,1] * u[8,1] ] >= 0
 qc178: - 3 x[8,9,0] + u[9,0] + [ - x[8,9,0] * u[8,0] ] >= 0
 qc179: - 3 x[8,9,1] + u[9,1] + [ - x[8,9,1] * u[8,1] ] >= 0
 qc180: u[0,0] + [ - x[9,0,0] * u[9,0] ] >= 0
 qc181: u[0,1] + [ - x[9,0,1] * u[9,1] ] >= 0
 qc182: u[1,0] + [ - x[9,1,0] * u[9,0] ] >= 0
 qc183: u[1,1] + [ - x[9,1,1] * u[9,1] ] >= 0
 qc184: u[2,0] + [ - x[9,2,0] * u[9,0] ] >= 0
 qc185: u[2,1] + [ - x[9,2,1] * u[9,1] ] >= 0
 qc186: u[3,0] + [ - x[9,3,0] * u[9,0] ] >= 0
 qc187: u[3,1] + [ - x[9,3,1] * u[9,1] ] >= 0
 qc188: u[4,0] + [ - x[9,4,0] * u[9,0] ] >= 0
 qc189: u[4,1] + [ - x[9,4,1] * u[9,1] ] >= 0
 qc190: u[5,0] + [ - x[9,5,0] * u[9,0] ] >= 0
 qc191: u[5,1] + [ - x[9,5,1] * u[9,1] ] >= 0
 qc192: u[6,0] + [ - x[9,6,0] * u[9,0] ] >= 0
 qc193: u[6,1] + [ - x[9,6,1] * u[9,1] ] >= 0
 qc194: u[7,0] + [ - x[9,7,0] * u[9,0] ] >= 0
 qc195: u[7,1] + [ - x[9,7,1] * u[9,1] ] >= 0
 qc196: u[8,0] + [ - x[9,8,0] * u[9,0] ] >= 0
 qc197: u[8,1] + [ - x[9,8,1] * u[9,1] ] >= 0
 qc198: u[9,0] + [ - x[9,9,0] * u[9,0] ] >= 0
 qc199: u[9,1] + [ - x[9,9,1] * u[9,1] ] >= 0
 qc200: w[0,0] + [ - x[0,0,0] * w[0,0] ] >= 0
 qc201: w[0,1] + [ - x[0,0,1] * w[0,1] ] >= 0
 qc202: - x[0,1,0] + w[1,0] + [ - x[0,1,0] * w[0,0] ] >= 0
 qc203: - x[0,1,1] + w[1,1] + [ - x[0,1,1] * w[0,1] ] >= 0
 qc204: - x[0,2,0] + w[2,0] + [ - x[0,2,0] * w[0,0] ] >= 0
 qc205: - x[0,2,1] + w[2,1] + [ - x[0,2,1] * w[0,1] ] >= 0
 qc206: - x[0,3,0] + w[3,0] + [ - x[0,3,0] * w[0,0] ] >= 0
 qc207: - x[0,3,1] + w[3,1] + [ - x[0,3,1] * w[0,1] ] >= 0
 qc208: - x[0,4,0] + w[4,0] + [ - x[0,4,0] * w[0,0] ] >= 0
 qc209: - x[0,4,1] + w[4,1] + [ - x[0,4,1] * w[0,1] ] >= 0
 qc210: x[0,5,0] + w[5,0] + [ - x[0,5,0] * w[0,0] ] >= 0
 qc211: x[0,5,1] + w[5,1] + [ - x[0,5,1] * w[0,1] ] >= 0
 qc212: x[0,6,0] + w[6,0] + [ - x[0,6,0] * w[0,0] ] >= 0
 qc213: x[0,6,1] + w[6,1] + [ - x[0,6,1] * w[0,1] ] >= 0
 qc214: x[0,7,0] + w[7,0] + [ - x[0,7,0] * w[0,0] ] >= 0
 qc215: x[0,7,1] + w[7,1] + [ - x[0,7,1] * w[0,1] ] >= 0
 qc216: x[0,8,0] + w[8,0] + [ - x[0,8,0] * w[0,0] ] >= 0
 qc217: x[0,8,1] + w[8,1] + [ - x[0,8,1] * w[0,1] ] >= 0
 qc218: w[9,0] + [ - x[0,9,0] * w[0,0] ] >= 0
 qc219: w[9,1] + [ - x[0,9,1] * w[0,1] ] >= 0
 qc220: w[0,0] + [ - x[1,0,0] * w[1,0] ] >= 0
 qc221: w[0,1] + [ - x[1,0,1] * w[1,1] ] >= 0
 qc222: - x[1,1,0] + w[1,0] + [ - x[1,1,0] * w[1,0] ] >= 0
 qc223: - x[1,1,1] + w[1,1] + [ - x[1,1,1] * w[1,1] ] >= 0
 qc224: - x[1,2,0] + w[2,0] + [ - x[1,2,0] * w[1,0] ] >= 0
 qc225: - x[1,2,1] + w[2,1] + [ - x[1,2,1] * w[1,1] ] >= 0
 qc226: - x[1,3,0] + w[3,0] + [ - x[1,3,0] * w[1,0] ] >= 0
 qc227: - x[1,3,1] + w[3,1] + [ - x[1,3,1] * w[1,1] ] >= 0
 qc228: - x[1,4,0] + w[4,0] + [ - x[1,4,0] * w[1,0] ] >= 0
 qc229: - x[1,4,1] + w[4,1] + [ - x[1,4,1] * w[1,1] ] >= 0
 qc230: x[1,5,0] + w[5,0] + [ - x[1,5,0] * w[1,0] ] >= 0
 qc231: x[1,5,1] + w[5,1] + [ - x[1,5,1] * w[1,1] ] >= 0
 qc232: x[1,6,0] + w[6,0] + [ - x[1,6,0] * w[1,0] ] >= 0
 qc233: x[1,6,1] + w[6,1] + [ - x[1,6,1] * w[1,1] ] >= 0
 qc234: x[1,7,0] + w[7,0] + [ - x[1,7,0] * w[1,0] ] >= 0
 qc235: x[1,7,1] + w[7,1] + [ - x[1,7,1] * w[1,1] ] >= 0
 qc236: x[1,8,0] + w[8,0] + [ - x[1,8,0] * w[1,0] ] >= 0
 qc237: x[1,8,1] + w[8,1] + [ - x[1,8,1] * w[1,1] ] >= 0
 qc238: w[9,0] + [ - x[1,9,0] * w[1,0] ] >= 0
 qc239: w[9,1] + [ - x[1,9,1] * w[1,1] ] >= 0
 qc240: w[0,0] + [ - x[2,0,0] * w[2,0] ] >= 0
 qc241: w[0,1] + [ - x[2,0,1] * w[2,1] ] >= 0
 qc242: - x[2,1,0] + w[1,0] + [ - x[2,1,0] * w[2,0] ] >= 0
 qc243: - x[2,1,1] + w[1,1] + [ - x[2,1,1] * w[2,1] ] >= 0
 qc244: - x[2,2,0] + w[2,0] + [ - x[2,2,0] * w[2,0] ] >= 0
 qc245: - x[2,2,1] + w[2,1] + [ - x[2,2,1] * w[2,1] ] >= 0
 qc246: - x[2,3,0] + w[3,0] + [ - x[2,3,0] * w[2,0] ] >= 0
 qc247: - x[2,3,1] + w[3,1] + [ - x[2,3,1] * w[2,1] ] >= 0
 qc248: - x[2,4,0] + w[4,0] + [ - x[2,4,0] * w[2,0] ] >= 0
 qc249: - x[2,4,1] + w[4,1] + [ - x[2,4,1] * w[2,1] ] >= 0
 qc250: x[2,5,0] + w[5,0] + [ - x[2,5,0] * w[2,0] ] >= 0
 qc251: x[2,5,1] + w[5,1] + [ - x[2,5,1] * w[2,1] ] >= 0
 qc252: x[2,6,0] + w[6,0] + [ - x[2,6,0] * w[2,0] ] >= 0
 qc253: x[2,6,1] + w[6,1] + [ - x[2,6,1] * w[2,1] ] >= 0
 qc254: x[2,7,0] + w[7,0] + [ - x[2,7,0] * w[2,0] ] >= 0
 qc255: x[2,7,1] + w[7,1] + [ - x[2,7,1] * w[2,1] ] >= 0
 qc256: x[2,8,0] + w[8,0] + [ - x[2,8,0] * w[2,0] ] >= 0
 qc257: x[2,8,1] + w[8,1] + [ - x[2,8,1] * w[2,1] ] >= 0
 qc258: w[9,0] + [ - x[2,9,0] * w[2,0] ] >= 0
 qc259: w[9,1] + [ - x[2,9,1] * w[2,1] ] >= 0
 qc260: w[0,0] + [ - x[3,0,0] * w[3,0] ] >= 0
 qc261: w[0,1] + [ - x[3,0,1] * w[3,1] ] >= 0
 qc262: - x[3,1,0] + w[1,0] + [ - x[3,1,0] * w[3,0] ] >= 0
 qc263: - x[3,1,1] + w[1,1] + [ - x[3,1,1] * w[3,1] ] >= 0
 qc264: - x[3,2,0] + w[2,0] + [ - x[3,2,0] * w[3,0] ] >= 0
 qc265: - x[3,2,1] + w[2,1] + [ - x[3,2,1] * w[3,1] ] >= 0
 qc266: - x[3,3,0] + w[3,0] + [ - x[3,3,0] * w[3,0] ] >= 0
 qc267: - x[3,3,1] + w[3,1] + [ - x[3,3,1] * w[3,1] ] >= 0
 qc268: - x[3,4,0] + w[4,0] + [ - x[3,4,0] * w[3,0] ] >= 0
 qc269: - x[3,4,1] + w[4,1] + [ - x[3,4,1] * w[3,1] ] >= 0
 qc270: x[3,5,0] + w[5,0] + [ - x[3,5,0] * w[3,0] ] >= 0
 qc271: x[3,5,1] + w[5,1] + [ - x[3,5,1] * w[3,1] ] >= 0
 qc272: x[3,6,0] + w[6,0] + [ - x[3,6,0] * w[3,0] ] >= 0
 qc273: x[3,6,1] + w[6,1] + [ - x[3,6,1] * w[3,1] ] >= 0
 qc274: x[3,7,0] + w[7,0] + [ - x[3,7,0] * w[3,0] ] >= 0
 qc275: x[3,7,1] + w[7,1] + [ - x[3,7,1] * w[3,1] ] >= 0
 qc276: x[3,8,0] + w[8,0] + [ - x[3,8,0] * w[3,0] ] >= 0
 qc277: x[3,8,1] + w[8,1] + [ - x[3,8,1] * w[3,1] ] >= 0
 qc278: w[9,0] + [ - x[3,9,0] * w[3,0] ] >= 0
 qc279: w[9,1] + [ - x[3,9,1] * w[3,1] ] >= 0
 qc280: w[0,0] + [ - x[4,0,0] * w[4,0] ] >= 0
 qc281: w[0,1] + [ - x[4,0,1] * w[4,1] ] >= 0
 qc282: - x[4,1,0] + w[1,0] + [ - x[4,1,0] * w[4,0] ] >= 0
 qc283: - x[4,1,1] + w[1,1] + [ - x[4,1,1] * w[4,1] ] >= 0
 qc284: - x[4,2,0] + w[2,0] + [ - x[4,2,0] * w[4,0] ] >= 0
 qc285: - x[4,2,1] + w[2,1] + [ - x[4,2,1] * w[4,1] ] >= 0
 qc286: - x[4,3,0] + w[3,0] + [ - x[4,3,0] * w[4,0] ] >= 0
 qc287: - x[4,3,1] + w[3,1] + [ - x[4,3,1] * w[4,1] ] >= 0
 qc288: - x[4,4,0] + w[4,0] + [ - x[4,4,0] * w[4,0] ] >= 0
 qc289: - x[4,4,1] + w[4,1] + [ - x[4,4,1] * w[4,1] ] >= 0
 qc290: x[4,5,0] + w[5,0] + [ - x[4,5,0] * w[4,0] ] >= 0
 qc291: x[4,5,1] + w[5,1] + [ - x[4,5,1] * w[4,1] ] >= 0
 qc292: x[4,6,0] + w[6,0] + [ - x[4,6,0] * w[4,0] ] >= 0
 qc293: x[4,6,1] + w[6,1] + [ - x[4,6,1] * w[4,1] ] >= 0
 qc294: x[4,7,0] + w[7,0] + [ - x[4,7,0] * w[4,0] ] >= 0
 qc295: x[4,7,1] + w[7,1] + [ - x[4,7,1] * w[4,1] ] >= 0
 qc296: x[4,8,0] + w[8,0] + [ - x[4,8,0] * w[4,0] ] >= 0
 qc297: x[4,8,1] + w[8,1] + [ - x[4,8,1] * w[4,1] ] >= 0
 qc298: w[9,0] + [ - x[4,9,0] * w[4,0] ] >= 0
 qc299: w[9,1] + [ - x[4,9,1] * w[4,1] ] >= 0
 qc300: w[0,0] + [ - x[5,0,0] * w[5,0] ] >= 0
 qc301: w[0,1] + [ - x[5,0,1] * w[5,1] ] >= 0
 qc302: - x[5,1,0] + w[1,0] + [ - x[5,1,0] * w[5,0] ] >= 0
 qc303: - x[5,1,1] + w[1,1] + [ - x[5,1,1] * w[5,1] ] >= 0
 qc304: - x[5,2,0] + w[2,0] + [ - x[5,2,0] * w[5,0] ] >= 0
 qc305: - x[5,2,1] + w[2,1] + [ - x[5,2,1] * w[5,1] ] >= 0
 qc306: - x[5,3,0] + w[3,0] + [ - x[5,3,0] * w[5,0] ] >= 0
 qc307: - x[5,3,1] + w[3,1] + [ - x[5,3,1] * w[5,1] ] >= 0
 qc308: - x[5,4,0] + w[4,0] + [ - x[5,4,0] * w[5,0] ] >= 0
 qc309: - x[5,4,1] + w[4,1] + [ - x[5,4,1] * w[5,1] ] >= 0
 qc310: x[5,5,0] + w[5,0] + [ - x[5,5,0] * w[5,0] ] >= 0
 qc311: x[5,5,1] + w[5,1] + [ - x[5,5,1] * w[5,1] ] >= 0
 qc312: x[5,6,0] + w[6,0] + [ - x[5,6,0] * w[5,0] ] >= 0
 qc313: x[5,6,1] + w[6,1] + [ - x[5,6,1] * w[5,1] ] >= 0
 qc314: x[5,7,0] + w[7,0] + [ - x[5,7,0] * w[5,0] ] >= 0
 qc315: x[5,7,1] + w[7,1] + [ - x[5,7,1] * w[5,1] ] >= 0
 qc316: x[5,8,0] + w[8,0] + [ - x[5,8,0] * w[5,0] ] >= 0
 qc317: x[5,8,1] + w[8,1] + [ - x[5,8,1] * w[5,1] ] >= 0
 qc318: w[9,0] + [ - x[5,9,0] * w[5,0] ] >= 0
 qc319: w[9,1] + [ - x[5,9,1] * w[5,1] ] >= 0
 qc320: w[0,0] + [ - x[6,0,0] * w[6,0] ] >= 0
 qc321: w[0,1] + [ - x[6,0,1] * w[6,1] ] >= 0
 qc322: - x[6,1,0] + w[1,0] + [ - x[6,1,0] * w[6,0] ] >= 0
 qc323: - x[6,1,1] + w[1,1] + [ - x[6,1,1] * w[6,1] ] >= 0
 qc324: - x[6,2,0] + w[2,0] + [ - x[6,2,0] * w[6,0] ] >= 0
 qc325: - x[6,2,1] + w[2,1] + [ - x[6,2,1] * w[6,1] ] >= 0
 qc326: - x[6,3,0] + w[3,0] + [ - x[6,3,0] * w[6,0] ] >= 0
 qc327: - x[6,3,1] + w[3,1] + [ - x[6,3,1] * w[6,1] ] >= 0
 qc328: - x[6,4,0] + w[4,0] + [ - x[6,4,0] * w[6,0] ] >= 0
 qc329: - x[6,4,1] + w[4,1] + [ - x[6,4,1] * w[6,1] ] >= 0
 qc330: x[6,5,0] + w[5,0] + [ - x[6,5,0] * w[6,0] ] >= 0
 qc331: x[6,5,1] + w[5,1] + [ - x[6,5,1] * w[6,1] ] >= 0
 qc332: x[6,6,0] + w[6,0] + [ - x[6,6,0] * w[6,0] ] >= 0
 qc333: x[6,6,1] + w[6,1] + [ - x[6,6,1] * w[6,1] ] >= 0
 qc334: x[6,7,0] + w[7,0] + [ - x[6,7,0] * w[6,0] ] >= 0
 qc335: x[6,7,1] + w[7,1] + [ - x[6,7,1] * w[6,1] ] >= 0
 qc336: x[6,8,0] + w[8,0] + [ - x[6,8,0] * w[6,0] ] >= 0
 qc337: x[6,8,1] + w[8,1] + [ - x[6,8,1] * w[6,1] ] >= 0
 qc338: w[9,0] + [ - x[6,9,0] * w[6,0] ] >= 0
 qc339: w[9,1] + [ - x[6,9,1] * w[6,1] ] >= 0
 qc340: w[0,0] + [ - x[7,0,0] * w[7,0] ] >= 0
 qc341: w[0,1] + [ - x[7,0,1] * w[7,1] ] >= 0
 qc342: - x[7,1,0] + w[1,0] + [ - x[7,1,0] * w[7,0] ] >= 0
 qc343: - x[7,1,1] + w[1,1] + [ - x[7,1,1] * w[7,1] ] >= 0
 qc344: - x[7,2,0] + w[2,0] + [ - x[7,2,0] * w[7,0] ] >= 0
 qc345: - x[7,2,1] + w[2,1] + [ - x[7,2,1] * w[7,1] ] >= 0
 qc346: - x[7,3,0] + w[3,0] + [ - x[7,3,0] * w[7,0] ] >= 0
 qc347: - x[7,3,1] + w[3,1] + [ - x[7,3,1] * w[7,1] ] >= 0
 qc348: - x[7,4,0] + w[4,0] + [ - x[7,4,0] * w[7,0] ] >= 0
 qc349: - x[7,4,1] + w[4,1] + [ - x[7,4,1] * w[7,1] ] >= 0
 qc350: x[7,5,0] + w[5,0] + [ - x[7,5,0] * w[7,0] ] >= 0
 qc351: x[7,5,1] + w[5,1] + [ - x[7,5,1] * w[7,1] ] >= 0
 qc352: x[7,6,0] + w[6,0] + [ - x[7,6,0] * w[7,0] ] >= 0
 qc353: x[7,6,1] + w[6,1] + [ - x[7,6,1] * w[7,1] ] >= 0
 qc354: x[7,7,0] + w[7,0] + [ - x[7,7,0] * w[7,0] ] >= 0
 qc355: x[7,7,1] + w[7,1] + [ - x[7,7,1] * w[7,1] ] >= 0
 qc356: x[7,8,0] + w[8,0] + [ - x[7,8,0] * w[7,0] ] >= 0
 qc357: x[7,8,1] + w[8,1] + [ - x[7,8,1] * w[7,1] ] >= 0
 qc358: w[9,0] + [ - x[7,9,0] * w[7,0] ] >= 0
 qc359: w[9,1] + [ - x[7,9,1] * w[7,1] ] >= 0
 qc360: w[0,0] + [ - x[8,0,0] * w[8,0] ] >= 0
 qc361: w[0,1] + [ - x[8,0,1] * w[8,1] ] >= 0
 qc362: - x[8,1,0] + w[1,0] + [ - x[8,1,0] * w[8,0] ] >= 0
 qc363: - x[8,1,1] + w[1,1] + [ - x[8,1,1] * w[8,1] ] >= 0
 qc364: - x[8,2,0] + w[2,0] + [ - x[8,2,0] * w[8,0] ] >= 0
 qc365: - x[8,2,1] + w[2,1] + [ - x[8,2,1] * w[8,1] ] >= 0
 qc366: - x[8,3,0] + w[3,0] + [ - x[8,3,0] * w[8,0] ] >= 0
 qc367: - x[8,3,1] + w[3,1] + [ - x[8,3,1] * w[8,1] ] >= 0
 qc368: - x[8,4,0] + w[4,0] + [ - x[8,4,0] * w[8,0] ] >= 0
 qc369: - x[8,4,1] + w[4,1] + [ - x[8,4,1] * w[8,1] ] >= 0
 qc370: x[8,5,0] + w[5,0] + [ - x[8,5,0] * w[8,0] ] >= 0
 qc371: x[8,5,1] + w[5,1] + [ - x[8,5,1] * w[8,1] ] >= 0
 qc372: x[8,6,0] + w[6,0] + [ - x[8,6,0] * w[8,0] ] >= 0
 qc373: x[8,6,1] + w[6,1] + [ - x[8,6,1] * w[8,1] ] >= 0
 qc374: x[8,7,0] + w[7,0] + [ - x[8,7,0] * w[8,0] ] >= 0
 qc375: x[8,7,1] + w[7,1] + [ - x[8,7,1] * w[8,1] ] >= 0
 qc376: x[8,8,0] + w[8,0] + [ - x[8,8,0] * w[8,0] ] >= 0
 qc377: x[8,8,1] + w[8,1] + [ - x[8,8,1] * w[8,1] ] >= 0
 qc378: w[9,0] + [ - x[8,9,0] * w[8,0] ] >= 0
 qc379: w[9,1] + [ - x[8,9,1] * w[8,1] ] >= 0
 qc380: w[0,0] + [ - x[9,0,0] * w[9,0] ] >= 0
 qc381: w[0,1] + [ - x[9,0,1] * w[9,1] ] >= 0
 qc382: - x[9,1,0] + w[1,0] + [ - x[9,1,0] * w[9,0] ] >= 0
 qc383: - x[9,1,1] + w[1,1] + [ - x[9,1,1] * w[9,1] ] >= 0
 qc384: - x[9,2,0] + w[2,0] + [ - x[9,2,0] * w[9,0] ] >= 0
 qc385: - x[9,2,1] + w[2,1] + [ - x[9,2,1] * w[9,1] ] >= 0
 qc386: - x[9,3,0] + w[3,0] + [ - x[9,3,0] * w[9,0] ] >= 0
 qc387: - x[9,3,1] + w[3,1] + [ - x[9,3,1] * w[9,1] ] >= 0
 qc388: - x[9,4,0] + w[4,0] + [ - x[9,4,0] * w[9,0] ] >= 0
 qc389: - x[9,4,1] + w[4,1] + [ - x[9,4,1] * w[9,1] ] >= 0
 qc390: x[9,5,0] + w[5,0] + [ - x[9,5,0] * w[9,0] ] >= 0
 qc391: x[9,5,1] + w[5,1] + [ - x[9,5,1] * w[9,1] ] >= 0
 qc392: x[9,6,0] + w[6,0] + [ - x[9,6,0] * w[9,0] ] >= 0
 qc393: x[9,6,1] + w[6,1] + [ - x[9,6,1] * w[9,1] ] >= 0
 qc394: x[9,7,0] + w[7,0] + [ - x[9,7,0] * w[9,0] ] >= 0
 qc395: x[9,7,1] + w[7,1] + [ - x[9,7,1] * w[9,1] ] >= 0
 qc396: x[9,8,0] + w[8,0] + [ - x[9,8,0] * w[9,0] ] >= 0
 qc397: x[9,8,1] + w[8,1] + [ - x[9,8,1] * w[9,1] ] >= 0
 qc398: w[9,0] + [ - x[9,9,0] * w[9,0] ] >= 0
 qc399: w[9,1] + [ - x[9,9,1] * w[9,1] ] >= 0
Bounds
Binaries
 x[0,0,0] x[0,1,0] x[0,2,0] x[0,3,0] x[0,4,0] x[0,5,0] x[0,6,0] x[0,7,0]
 x[0,8,0] x[0,9,0] x[1,0,0] x[1,1,0] x[1,2,0] x[1,3,0] x[1,4,0] x[1,5,0]
 x[1,6,0] x[1,7,0] x[1,8,0] x[1,9,0] x[2,0,0] x[2,1,0] x[2,2,0] x[2,3,0]
 x[2,4,0] x[2,5,0] x[2,6,0] x[2,7,0] x[2,8,0] x[2,9,0] x[3,0,0] x[3,1,0]
 x[3,2,0] x[3,3,0] x[3,4,0] x[3,5,0] x[3,6,0] x[3,7,0] x[3,8,0] x[3,9,0]
 x[4,0,0] x[4,1,0] x[4,2,0] x[4,3,0] x[4,4,0] x[4,5,0] x[4,6,0] x[4,7,0]
 x[4,8,0] x[4,9,0] x[5,0,0] x[5,1,0] x[5,2,0] x[5,3,0] x[5,4,0] x[5,5,0]
 x[5,6,0] x[5,7,0] x[5,8,0] x[5,9,0] x[6,0,0] x[6,1,0] x[6,2,0] x[6,3,0]
 x[6,4,0] x[6,5,0] x[6,6,0] x[6,7,0] x[6,8,0] x[6,9,0] x[7,0,0] x[7,1,0]
 x[7,2,0] x[7,3,0] x[7,4,0] x[7,5,0] x[7,6,0] x[7,7,0] x[7,8,0] x[7,9,0]
 x[8,0,0] x[8,1,0] x[8,2,0] x[8,3,0] x[8,4,0] x[8,5,0] x[8,6,0] x[8,7,0]
 x[8,8,0] x[8,9,0] x[9,0,0] x[9,1,0] x[9,2,0] x[9,3,0] x[9,4,0] x[9,5,0]
 x[9,6,0] x[9,7,0] x[9,8,0] x[9,9,0] x[0,0,1] x[0,1,1] x[0,2,1] x[0,3,1]
 x[0,4,1] x[0,5,1] x[0,6,1] x[0,7,1] x[0,8,1] x[0,9,1] x[1,0,1] x[1,1,1]
 x[1,2,1] x[1,3,1] x[1,4,1] x[1,5,1] x[1,6,1] x[1,7,1] x[1,8,1] x[1,9,1]
 x[2,0,1] x[2,1,1] x[2,2,1] x[2,3,1] x[2,4,1] x[2,5,1] x[2,6,1] x[2,7,1]
 x[2,8,1] x[2,9,1] x[3,0,1] x[3,1,1] x[3,2,1] x[3,3,1] x[3,4,1] x[3,5,1]
 x[3,6,1] x[3,7,1] x[3,8,1] x[3,9,1] x[4,0,1] x[4,1,1] x[4,2,1] x[4,3,1]
 x[4,4,1] x[4,5,1] x[4,6,1] x[4,7,1] x[4,8,1] x[4,9,1] x[5,0,1] x[5,1,1]
 x[5,2,1] x[5,3,1] x[5,4,1] x[5,5,1] x[5,6,1] x[5,7,1] x[5,8,1] x[5,9,1]
 x[6,0,1] x[6,1,1] x[6,2,1] x[6,3,1] x[6,4,1] x[6,5,1] x[6,6,1] x[6,7,1]
 x[6,8,1] x[6,9,1] x[7,0,1] x[7,1,1] x[7,2,1] x[7,3,1] x[7,4,1] x[7,5,1]
 x[7,6,1] x[7,7,1] x[7,8,1] x[7,9,1] x[8,0,1] x[8,1,1] x[8,2,1] x[8,3,1]
 x[8,4,1] x[8,5,1] x[8,6,1] x[8,7,1] x[8,8,1] x[8,9,1] x[9,0,1] x[9,1,1]
 x[9,2,1] x[9,3,1] x[9,4,1] x[9,5,1] x[9,6,1] x[9,7,1] x[9,8,1] x[9,9,1]
End
